42323
124,131,130,129,128,138,142,137,23,24,25,144,145,143,139,132,133,134,167,168,117,116,115,114,101,102,98,156,158,159,163,164,169,170,135,171,173,176,175,186,136,184,141,140,185,187,147,146,155,153,152,154,148,149,150,151,197,199,200,201,202,196,195,183,182,194,193,198,191,192,190,188,189,177,180,181,179,178,174,172,165,160,161,166,162,157,91,89,90,81,82,80,79,78,77,76,75,74,68,67,85,84,83,86,87,88,94,92,93,97,96,95,100,99,111,107,109,110,108,46,49,50,48,47,45,42,44,43,36,35,34,53,56,52,55,54,57,58,59,60,61,62,66,65,63,64,73,72,71,70,69,51,30,31,32,33,26,20,21,19,12,15,16,3,1,2,4,5,6,7,8,14,13,10,9,17,18,11,22,29,27,28,127,37,38,39,118,40,41,103,106,105,104,119,120,123,121,112,113,122,125,126,124
